% Logging successfully configured
%%%mzn-stat: initTime=0.015974428
%%%mzn-stat: objective=893
%%%mzn-stat: nodes=1361696
%%%mzn-stat: restarts=0
%%%mzn-stat: peakDepth=595
%%%mzn-stat: solveTime=669.394690385
%%%mzn-stat: variables=1105
%%%mzn-stat: propagators=806
%%%mzn-stat: failures=1161479
%%%mzn-stat: propagations=27304554
%%%mzn-stat: nogoods=1161479
%%%mzn-stat: numAtomicConstraintsPropagated=0
%%%mzn-stat: allDifferentNumber1TotalHallSetSize=52209883
%%%mzn-stat: allDifferentNumber1NumberOfConflicts=883755
%%%mzn-stat: allDifferentNumber1MaxHallSetSize=99
%%%mzn-stat: allDifferentNumber1PropagationsTotal=4094999
%%%mzn-stat: allDifferentNumber1PropagationsThatFoundConflict=883755
%%%mzn-stat: circuitNumber2PropagationsThatFoundConflict=60912
%%%mzn-stat: circuitNumber2TotalFixedEdgesAtConflict=3380733
%%%mzn-stat: circuitNumber2NumberOfConflicts=60912
%%%mzn-stat: circuitNumber2PropagationsThatPruned=215102
%%%mzn-stat: circuitNumber2PropagationsTotal=2109272
%%%mzn-stat: AverageConflictSize=35.823186643925546
%%%mzn-stat: NumUnitNogoodsLearned=0
%%%mzn-stat: AverageLearnedNogoodLength=42.861805508321716
%%%mzn-stat: AverageBacktrackAmount=0
%%%mzn-stat: AverageLbd=36.31245851194899
%%%mzn-stat: 2AutonomousSearchNumBackupCalled=522
%%%mzn-stat: 2AutonomousSearchNumPredicatesRemoved=0
%%%mzn-stat: 2AutonomousSearchNumCalls=523
%%%mzn-stat: 2AutonomousSearchNumPredicatesAdded=3439
%%%mzn-stat: 2AutonomousSearchAverageSizeOfHeap=6.575525812619503
%%%mzn-stat: 2AutonomousSearchNumAssignedPredicatesEncountered=3439
%%%mzn-stat-end
maxleg = 893;
succ = array1d(1..100,[35, 11, 26, 7, 12, 8, 16, 38, 14, 25, 15, 20, 4, 45, 23, 19, 40, 42, 22, 66, 33, 34, 61, 30, 32, 5, 52, 49, 13, 57, 24, 62, 41, 51, 65, 3, 90, 46, 10, 28, 53, 48, 54, 18, 97, 77, 39, 67, 43, 9, 91, 94, 74, 75, 89, 17, 59, 21, 37, 44, 79, 29, 36, 84, 95, 72, 55, 50, 6, 78, 81, 76, 86, 87, 73, 92, 80, 88, 83, 31, 47, 71, 85, 96, 1, 60, 2, 98, 69, 58, 70, 64, 56, 100, 99, 82, 63, 93, 27, 68]);
% time elapsed: 670.63 s
----------
%%%mzn-stat: initTime=0.015974428
%%%mzn-stat: objective=699
%%%mzn-stat: nodes=1363366
%%%mzn-stat: restarts=0
%%%mzn-stat: peakDepth=595
%%%mzn-stat: solveTime=669.63534662
%%%mzn-stat: variables=1105
%%%mzn-stat: propagators=806
%%%mzn-stat: failures=1161840
%%%mzn-stat: propagations=27321912
%%%mzn-stat: nogoods=1161840
%%%mzn-stat: numAtomicConstraintsPropagated=0
%%%mzn-stat: allDifferentNumber1TotalHallSetSize=52216344
%%%mzn-stat: allDifferentNumber1NumberOfConflicts=884089
%%%mzn-stat: allDifferentNumber1MaxHallSetSize=99
%%%mzn-stat: allDifferentNumber1PropagationsTotal=4097204
%%%mzn-stat: allDifferentNumber1PropagationsThatFoundConflict=884089
%%%mzn-stat: circuitNumber2PropagationsThatFoundConflict=60915
%%%mzn-stat: circuitNumber2TotalFixedEdgesAtConflict=3380946
%%%mzn-stat: circuitNumber2NumberOfConflicts=60915
%%%mzn-stat: circuitNumber2PropagationsThatPruned=215351
%%%mzn-stat: circuitNumber2PropagationsTotal=2110647
%%%mzn-stat: AverageConflictSize=35.81987192728775
%%%mzn-stat: NumUnitNogoodsLearned=0
%%%mzn-stat: AverageLearnedNogoodLength=42.85849428492735
%%%mzn-stat: AverageBacktrackAmount=0
%%%mzn-stat: AverageLbd=36.306917475728156
%%%mzn-stat: 2AutonomousSearchNumBackupCalled=1046
%%%mzn-stat: 2AutonomousSearchNumPredicatesRemoved=0
%%%mzn-stat: 2AutonomousSearchNumCalls=1048
%%%mzn-stat: 2AutonomousSearchNumPredicatesAdded=6302
%%%mzn-stat: 2AutonomousSearchAverageSizeOfHeap=7.648854961832061
%%%mzn-stat: 2AutonomousSearchNumAssignedPredicatesEncountered=8016
%%%mzn-stat-end
maxleg = 699;
succ = array1d(1..100,[35, 11, 26, 7, 12, 8, 16, 38, 14, 25, 15, 20, 4, 45, 23, 19, 40, 42, 22, 66, 33, 34, 61, 30, 32, 5, 52, 49, 13, 57, 80, 62, 41, 51, 65, 96, 24, 46, 10, 28, 53, 48, 54, 18, 97, 55, 39, 67, 43, 9, 91, 94, 58, 75, 69, 17, 59, 90, 31, 56, 79, 29, 36, 21, 95, 72, 82, 50, 89, 78, 81, 76, 86, 87, 73, 92, 6, 88, 83, 77, 47, 71, 85, 3, 1, 98, 2, 74, 60, 37, 70, 64, 44, 100, 99, 84, 63, 93, 27, 68]);
% time elapsed: 670.83 s
----------
%%%mzn-stat: initTime=0.015974428
%%%mzn-stat: objective=509
%%%mzn-stat: nodes=1365927
%%%mzn-stat: restarts=0
%%%mzn-stat: peakDepth=595
%%%mzn-stat: solveTime=669.995774371
%%%mzn-stat: variables=1105
%%%mzn-stat: propagators=806
%%%mzn-stat: failures=1162267
%%%mzn-stat: propagations=27349641
%%%mzn-stat: nogoods=1162267
%%%mzn-stat: numAtomicConstraintsPropagated=0
%%%mzn-stat: allDifferentNumber1TotalHallSetSize=52223440
%%%mzn-stat: allDifferentNumber1NumberOfConflicts=884475
%%%mzn-stat: allDifferentNumber1MaxHallSetSize=99
%%%mzn-stat: allDifferentNumber1PropagationsTotal=4101267
%%%mzn-stat: allDifferentNumber1PropagationsThatFoundConflict=884475
%%%mzn-stat: circuitNumber2PropagationsThatFoundConflict=60948
%%%mzn-stat: circuitNumber2TotalFixedEdgesAtConflict=3382817
%%%mzn-stat: circuitNumber2NumberOfConflicts=60948
%%%mzn-stat: circuitNumber2PropagationsThatPruned=215874
%%%mzn-stat: circuitNumber2PropagationsTotal=2113315
%%%mzn-stat: AverageConflictSize=35.81522231982841
%%%mzn-stat: NumUnitNogoodsLearned=0
%%%mzn-stat: AverageLearnedNogoodLength=42.85230416074792
%%%mzn-stat: AverageBacktrackAmount=0
%%%mzn-stat: AverageLbd=36.298538975984
%%%mzn-stat: 2AutonomousSearchNumBackupCalled=1571
%%%mzn-stat: 2AutonomousSearchNumPredicatesRemoved=0
%%%mzn-stat: 2AutonomousSearchNumCalls=1574
%%%mzn-stat: 2AutonomousSearchNumPredicatesAdded=9658
%%%mzn-stat: 2AutonomousSearchAverageSizeOfHeap=8.629606099110546
%%%mzn-stat: 2AutonomousSearchNumAssignedPredicatesEncountered=13583
%%%mzn-stat-end
maxleg = 509;
succ = array1d(1..100,[35, 11, 26, 7, 12, 8, 16, 38, 14, 25, 15, 20, 4, 45, 23, 19, 40, 42, 22, 66, 33, 34, 61, 30, 62, 5, 52, 49, 13, 57, 80, 39, 41, 51, 65, 96, 24, 82, 47, 28, 53, 60, 32, 56, 97, 6, 71, 55, 54, 9, 91, 94, 58, 73, 69, 17, 59, 90, 31, 86, 79, 29, 36, 21, 95, 72, 48, 50, 89, 78, 81, 76, 75, 87, 43, 92, 46, 88, 83, 77, 10, 67, 85, 3, 1, 98, 2, 74, 18, 37, 70, 64, 44, 100, 99, 84, 63, 93, 27, 68]);
% time elapsed: 671.20 s
----------
%%%mzn-stat: initTime=0.015974428
%%%mzn-stat: objective=304
%%%mzn-stat: nodes=1392855
%%%mzn-stat: restarts=0
%%%mzn-stat: peakDepth=595
%%%mzn-stat: solveTime=679.769053373
%%%mzn-stat: variables=1105
%%%mzn-stat: propagators=806
%%%mzn-stat: failures=1176313
%%%mzn-stat: propagations=28092002
%%%mzn-stat: nogoods=1176313
%%%mzn-stat: numAtomicConstraintsPropagated=0
%%%mzn-stat: allDifferentNumber1TotalHallSetSize=52236949
%%%mzn-stat: allDifferentNumber1NumberOfConflicts=887145
%%%mzn-stat: allDifferentNumber1MaxHallSetSize=99
%%%mzn-stat: allDifferentNumber1PropagationsTotal=4188166
%%%mzn-stat: allDifferentNumber1PropagationsThatFoundConflict=887145
%%%mzn-stat: circuitNumber2PropagationsThatFoundConflict=71156
%%%mzn-stat: circuitNumber2TotalFixedEdgesAtConflict=4205401
%%%mzn-stat: circuitNumber2NumberOfConflicts=71156
%%%mzn-stat: circuitNumber2PropagationsThatPruned=241970
%%%mzn-stat: circuitNumber2PropagationsTotal=2175572
%%%mzn-stat: AverageConflictSize=35.61788401556389
%%%mzn-stat: NumUnitNogoodsLearned=0
%%%mzn-stat: AverageLearnedNogoodLength=42.78162019802553
%%%mzn-stat: AverageBacktrackAmount=0
%%%mzn-stat: AverageLbd=36.097352490366085
%%%mzn-stat: 2AutonomousSearchNumBackupCalled=2075
%%%mzn-stat: 2AutonomousSearchNumPredicatesRemoved=0
%%%mzn-stat: 2AutonomousSearchNumCalls=2079
%%%mzn-stat: 2AutonomousSearchNumPredicatesAdded=13942
%%%mzn-stat: 2AutonomousSearchAverageSizeOfHeap=9.756132756132756
%%%mzn-stat: 2AutonomousSearchNumAssignedPredicatesEncountered=20283
%%%mzn-stat-end
maxleg = 304;
succ = array1d(1..100,[35, 11, 26, 7, 12, 8, 16, 38, 14, 25, 15, 20, 4, 45, 23, 19, 40, 42, 22, 66, 33, 34, 61, 30, 62, 5, 52, 49, 51, 57, 24, 39, 41, 32, 72, 63, 90, 46, 47, 28, 53, 48, 54, 18, 80, 89, 71, 3, 43, 9, 91, 65, 74, 75, 69, 17, 59, 21, 37, 56, 79, 29, 82, 84, 94, 95, 55, 50, 77, 88, 81, 76, 86, 78, 73, 92, 6, 13, 83, 31, 10, 67, 85, 96, 1, 98, 2, 87, 60, 58, 70, 97, 44, 100, 99, 36, 64, 93, 27, 68]);
% time elapsed: 680.98 s
----------
%%%mzn-stat: initTime=0.015974428
%%%mzn-stat: objective=295
%%%mzn-stat: nodes=1396064
%%%mzn-stat: restarts=0
%%%mzn-stat: peakDepth=595
%%%mzn-stat: solveTime=680.973340004
%%%mzn-stat: variables=1105
%%%mzn-stat: propagators=806
%%%mzn-stat: failures=1177787
%%%mzn-stat: propagations=28174317
%%%mzn-stat: nogoods=1177787
%%%mzn-stat: numAtomicConstraintsPropagated=0
%%%mzn-stat: allDifferentNumber1TotalHallSetSize=52238796
%%%mzn-stat: allDifferentNumber1NumberOfConflicts=887199
%%%mzn-stat: allDifferentNumber1MaxHallSetSize=99
%%%mzn-stat: allDifferentNumber1PropagationsTotal=4196944
%%%mzn-stat: allDifferentNumber1PropagationsThatFoundConflict=887199
%%%mzn-stat: circuitNumber2PropagationsThatFoundConflict=72490
%%%mzn-stat: circuitNumber2TotalFixedEdgesAtConflict=4309685
%%%mzn-stat: circuitNumber2NumberOfConflicts=72490
%%%mzn-stat: circuitNumber2PropagationsThatPruned=244680
%%%mzn-stat: circuitNumber2PropagationsTotal=2182251
%%%mzn-stat: AverageConflictSize=35.59925776052886
%%%mzn-stat: NumUnitNogoodsLearned=0
%%%mzn-stat: AverageLearnedNogoodLength=42.80690821005835
%%%mzn-stat: AverageBacktrackAmount=0
%%%mzn-stat: AverageLbd=36.089347224922676
%%%mzn-stat: 2AutonomousSearchNumBackupCalled=2581
%%%mzn-stat: 2AutonomousSearchNumPredicatesRemoved=0
%%%mzn-stat: 2AutonomousSearchNumCalls=2586
%%%mzn-stat: 2AutonomousSearchNumPredicatesAdded=17950
%%%mzn-stat: 2AutonomousSearchAverageSizeOfHeap=10.482598607888631
%%%mzn-stat: 2AutonomousSearchNumAssignedPredicatesEncountered=27108
%%%mzn-stat-end
maxleg = 295;
succ = array1d(1..100,[35, 11, 26, 7, 12, 8, 16, 38, 14, 25, 15, 20, 4, 45, 23, 19, 40, 42, 22, 66, 33, 34, 61, 30, 62, 5, 52, 49, 91, 57, 24, 39, 41, 32, 72, 63, 90, 46, 47, 28, 53, 48, 54, 18, 80, 89, 71, 3, 43, 9, 29, 65, 74, 75, 69, 17, 59, 21, 37, 56, 79, 51, 82, 84, 94, 95, 55, 50, 77, 88, 81, 76, 86, 78, 73, 92, 6, 13, 83, 31, 10, 67, 85, 96, 1, 98, 2, 87, 60, 58, 70, 97, 44, 100, 99, 36, 64, 93, 27, 68]);
% time elapsed: 682.18 s
----------
%%%mzn-stat: initTime=0.015974428
%%%mzn-stat: objective=277
%%%mzn-stat: nodes=1397008
%%%mzn-stat: restarts=0
%%%mzn-stat: peakDepth=595
%%%mzn-stat: solveTime=681.036449336
%%%mzn-stat: variables=1105
%%%mzn-stat: propagators=806
%%%mzn-stat: failures=1177864
%%%mzn-stat: propagations=28180772
%%%mzn-stat: nogoods=1177864
%%%mzn-stat: numAtomicConstraintsPropagated=0
%%%mzn-stat: allDifferentNumber1TotalHallSetSize=52239888
%%%mzn-stat: allDifferentNumber1NumberOfConflicts=887245
%%%mzn-stat: allDifferentNumber1MaxHallSetSize=99
%%%mzn-stat: allDifferentNumber1PropagationsTotal=4197677
%%%mzn-stat: allDifferentNumber1PropagationsThatFoundConflict=887245
%%%mzn-stat: circuitNumber2PropagationsThatFoundConflict=72521
%%%mzn-stat: circuitNumber2TotalFixedEdgesAtConflict=4311441
%%%mzn-stat: circuitNumber2NumberOfConflicts=72521
%%%mzn-stat: circuitNumber2PropagationsThatPruned=244723
%%%mzn-stat: circuitNumber2PropagationsTotal=2182749
%%%mzn-stat: AverageConflictSize=35.598257523788824
%%%mzn-stat: NumUnitNogoodsLearned=0
%%%mzn-stat: AverageLearnedNogoodLength=42.80591817051884
%%%mzn-stat: AverageBacktrackAmount=0
%%%mzn-stat: AverageLbd=36.08786922768673
%%%mzn-stat: 2AutonomousSearchNumBackupCalled=3074
%%%mzn-stat: 2AutonomousSearchNumPredicatesRemoved=0
%%%mzn-stat: 2AutonomousSearchNumCalls=3080
%%%mzn-stat: 2AutonomousSearchNumPredicatesAdded=19966
%%%mzn-stat: 2AutonomousSearchAverageSizeOfHeap=11.141883116883117
%%%mzn-stat: 2AutonomousSearchNumAssignedPredicatesEncountered=34317
%%%mzn-stat-end
maxleg = 277;
succ = array1d(1..100,[35, 11, 26, 7, 12, 8, 16, 38, 14, 25, 15, 20, 4, 45, 23, 19, 40, 42, 22, 66, 33, 57, 61, 30, 62, 5, 52, 49, 91, 37, 24, 39, 41, 29, 65, 3, 90, 46, 47, 28, 53, 60, 32, 56, 97, 89, 71, 55, 54, 80, 34, 94, 70, 73, 69, 17, 59, 21, 31, 86, 79, 51, 36, 84, 95, 72, 48, 50, 77, 78, 81, 76, 75, 87, 43, 92, 6, 88, 83, 9, 10, 67, 85, 96, 1, 98, 2, 74, 18, 58, 13, 64, 44, 100, 99, 82, 63, 93, 27, 68]);
% time elapsed: 682.25 s
----------
%%%mzn-stat: initTime=0.015974428
%%%mzn-stat: objective=271
%%%mzn-stat: nodes=1407228
%%%mzn-stat: restarts=0
%%%mzn-stat: peakDepth=595
%%%mzn-stat: solveTime=685.134225899
%%%mzn-stat: variables=1105
%%%mzn-stat: propagators=806
%%%mzn-stat: failures=1182856
%%%mzn-stat: propagations=28432933
%%%mzn-stat: nogoods=1182856
%%%mzn-stat: numAtomicConstraintsPropagated=0
%%%mzn-stat: allDifferentNumber1TotalHallSetSize=52243559
%%%mzn-stat: allDifferentNumber1NumberOfConflicts=887382
%%%mzn-stat: allDifferentNumber1MaxHallSetSize=99
%%%mzn-stat: allDifferentNumber1PropagationsTotal=4224480
%%%mzn-stat: allDifferentNumber1PropagationsThatFoundConflict=887382
%%%mzn-stat: circuitNumber2PropagationsThatFoundConflict=77246
%%%mzn-stat: circuitNumber2TotalFixedEdgesAtConflict=4686419
%%%mzn-stat: circuitNumber2NumberOfConflicts=77246
%%%mzn-stat: circuitNumber2PropagationsThatPruned=252119
%%%mzn-stat: circuitNumber2PropagationsTotal=2204233
%%%mzn-stat: AverageConflictSize=35.53592153229133
%%%mzn-stat: NumUnitNogoodsLearned=0
%%%mzn-stat: AverageLearnedNogoodLength=42.891996997098545
%%%mzn-stat: AverageBacktrackAmount=0
%%%mzn-stat: AverageLbd=36.06103870631759
%%%mzn-stat: 2AutonomousSearchNumBackupCalled=3589
%%%mzn-stat: 2AutonomousSearchNumPredicatesRemoved=0
%%%mzn-stat: 2AutonomousSearchNumCalls=3596
%%%mzn-stat: 2AutonomousSearchNumPredicatesAdded=24008
%%%mzn-stat: 2AutonomousSearchAverageSizeOfHeap=11.628754171301447
%%%mzn-stat: 2AutonomousSearchNumAssignedPredicatesEncountered=41817
%%%mzn-stat-end
maxleg = 271;
succ = array1d(1..100,[35, 11, 26, 7, 12, 8, 16, 38, 14, 25, 15, 20, 70, 45, 23, 19, 40, 42, 22, 66, 33, 34, 61, 30, 62, 5, 52, 49, 91, 57, 24, 39, 41, 32, 72, 63, 4, 46, 47, 28, 90, 48, 54, 18, 80, 89, 71, 3, 43, 9, 29, 65, 74, 75, 69, 17, 59, 53, 37, 56, 79, 51, 82, 84, 94, 95, 55, 50, 77, 78, 81, 76, 86, 87, 73, 92, 6, 88, 83, 31, 10, 67, 85, 96, 1, 98, 2, 21, 60, 58, 13, 97, 44, 100, 99, 36, 64, 93, 27, 68]);
% time elapsed: 686.35 s
----------
%%%mzn-stat: initTime=0.015974428
%%%mzn-stat: objective=237
%%%mzn-stat: nodes=1734509
%%%mzn-stat: restarts=0
%%%mzn-stat: peakDepth=595
%%%mzn-stat: solveTime=784.811188208
%%%mzn-stat: variables=1105
%%%mzn-stat: propagators=806
%%%mzn-stat: failures=1347009
%%%mzn-stat: propagations=36135021
%%%mzn-stat: nogoods=1347009
%%%mzn-stat: numAtomicConstraintsPropagated=0
%%%mzn-stat: allDifferentNumber1TotalHallSetSize=52321717
%%%mzn-stat: allDifferentNumber1NumberOfConflicts=893593
%%%mzn-stat: allDifferentNumber1MaxHallSetSize=99
%%%mzn-stat: allDifferentNumber1PropagationsTotal=5075415
%%%mzn-stat: allDifferentNumber1PropagationsThatFoundConflict=893593
%%%mzn-stat: circuitNumber2PropagationsThatFoundConflict=213107
%%%mzn-stat: circuitNumber2TotalFixedEdgesAtConflict=15182145
%%%mzn-stat: circuitNumber2NumberOfConflicts=213107
%%%mzn-stat: circuitNumber2PropagationsThatPruned=433472
%%%mzn-stat: circuitNumber2PropagationsTotal=2835703
%%%mzn-stat: AverageConflictSize=33.71984077315
%%%mzn-stat: NumUnitNogoodsLearned=0
%%%mzn-stat: AverageLearnedNogoodLength=41.524531016496546
%%%mzn-stat: AverageBacktrackAmount=0
%%%mzn-stat: AverageLbd=33.576042921762216
%%%mzn-stat: 2AutonomousSearchNumBackupCalled=4097
%%%mzn-stat: 2AutonomousSearchNumPredicatesRemoved=0
%%%mzn-stat: 2AutonomousSearchNumCalls=4105
%%%mzn-stat: 2AutonomousSearchNumPredicatesAdded=30208
%%%mzn-stat: 2AutonomousSearchAverageSizeOfHeap=12.255054811205847
%%%mzn-stat: 2AutonomousSearchNumAssignedPredicatesEncountered=50307
%%%mzn-stat-end
maxleg = 237;
succ = array1d(1..100,[35, 11, 26, 7, 12, 8, 16, 38, 14, 25, 15, 20, 70, 45, 23, 19, 40, 42, 22, 66, 33, 34, 61, 30, 62, 36, 52, 49, 91, 57, 24, 39, 41, 32, 72, 96, 4, 46, 47, 28, 90, 48, 54, 18, 80, 89, 71, 3, 43, 9, 29, 65, 74, 75, 69, 17, 59, 53, 37, 56, 79, 51, 82, 63, 94, 95, 55, 50, 77, 78, 81, 76, 86, 87, 73, 92, 6, 88, 83, 31, 10, 67, 85, 5, 1, 98, 2, 21, 60, 58, 13, 97, 44, 100, 99, 84, 64, 93, 27, 68]);
% time elapsed: 786.04 s
----------
%%%mzn-stat: initTime=0.015974428
%%%mzn-stat: objective=229
%%%mzn-stat: nodes=2037808
%%%mzn-stat: restarts=0
%%%mzn-stat: peakDepth=595
%%%mzn-stat: solveTime=889.28285368
%%%mzn-stat: variables=1105
%%%mzn-stat: propagators=806
%%%mzn-stat: failures=1515272
%%%mzn-stat: propagations=44891603
%%%mzn-stat: nogoods=1515272
%%%mzn-stat: numAtomicConstraintsPropagated=0
%%%mzn-stat: allDifferentNumber1TotalHallSetSize=52726056
%%%mzn-stat: allDifferentNumber1NumberOfConflicts=911118
%%%mzn-stat: allDifferentNumber1MaxHallSetSize=99
%%%mzn-stat: allDifferentNumber1PropagationsTotal=5824205
%%%mzn-stat: allDifferentNumber1PropagationsThatFoundConflict=911118
%%%mzn-stat: circuitNumber2PropagationsThatFoundConflict=289390
%%%mzn-stat: circuitNumber2TotalFixedEdgesAtConflict=20742180
%%%mzn-stat: circuitNumber2NumberOfConflicts=289390
%%%mzn-stat: circuitNumber2PropagationsThatPruned=557522
%%%mzn-stat: circuitNumber2PropagationsTotal=3395311
%%%mzn-stat: AverageConflictSize=31.930071960677687
%%%mzn-stat: NumUnitNogoodsLearned=0
%%%mzn-stat: AverageLearnedNogoodLength=41.77611148361482
%%%mzn-stat: AverageBacktrackAmount=0
%%%mzn-stat: AverageLbd=32.020750729901955
%%%mzn-stat: 2AutonomousSearchNumBackupCalled=4564
%%%mzn-stat: 2AutonomousSearchNumPredicatesRemoved=0
%%%mzn-stat: 2AutonomousSearchNumCalls=4573
%%%mzn-stat: 2AutonomousSearchNumPredicatesAdded=37710
%%%mzn-stat: 2AutonomousSearchAverageSizeOfHeap=13.04745243822436
%%%mzn-stat: 2AutonomousSearchNumAssignedPredicatesEncountered=59666
%%%mzn-stat-end
maxleg = 229;
succ = array1d(1..100,[35, 11, 26, 7, 12, 8, 16, 38, 14, 25, 15, 20, 70, 45, 23, 19, 40, 42, 22, 66, 33, 57, 61, 30, 62, 36, 52, 49, 91, 37, 24, 39, 41, 29, 72, 96, 58, 82, 47, 28, 90, 60, 32, 56, 80, 6, 71, 55, 54, 9, 34, 65, 74, 73, 69, 17, 59, 53, 31, 86, 79, 51, 3, 63, 94, 95, 48, 50, 89, 78, 81, 76, 75, 87, 43, 92, 46, 88, 83, 77, 10, 67, 85, 5, 1, 98, 2, 21, 18, 4, 13, 97, 44, 100, 99, 84, 64, 93, 27, 68]);
% time elapsed: 890.51 s
----------
%%%mzn-stat: initTime=0.015974428
%%%mzn-stat: objective=222
%%%mzn-stat: nodes=2038369
%%%mzn-stat: restarts=0
%%%mzn-stat: peakDepth=595
%%%mzn-stat: solveTime=889.292139311
%%%mzn-stat: variables=1105
%%%mzn-stat: propagators=806
%%%mzn-stat: failures=1515272
%%%mzn-stat: propagations=44893193
%%%mzn-stat: nogoods=1515272
%%%mzn-stat: numAtomicConstraintsPropagated=0
%%%mzn-stat: allDifferentNumber1TotalHallSetSize=52726056
%%%mzn-stat: allDifferentNumber1NumberOfConflicts=911118
%%%mzn-stat: allDifferentNumber1MaxHallSetSize=99
%%%mzn-stat: allDifferentNumber1PropagationsTotal=5824299
%%%mzn-stat: allDifferentNumber1PropagationsThatFoundConflict=911118
%%%mzn-stat: circuitNumber2PropagationsThatFoundConflict=289390
%%%mzn-stat: circuitNumber2TotalFixedEdgesAtConflict=20742180
%%%mzn-stat: circuitNumber2NumberOfConflicts=289390
%%%mzn-stat: circuitNumber2PropagationsThatPruned=557525
%%%mzn-stat: circuitNumber2PropagationsTotal=3395374
%%%mzn-stat: AverageConflictSize=31.930071960677687
%%%mzn-stat: NumUnitNogoodsLearned=0
%%%mzn-stat: AverageLearnedNogoodLength=41.77611148361482
%%%mzn-stat: AverageBacktrackAmount=0
%%%mzn-stat: AverageLbd=32.020750729901955
%%%mzn-stat: 2AutonomousSearchNumBackupCalled=5066
%%%mzn-stat: 2AutonomousSearchNumPredicatesRemoved=0
%%%mzn-stat: 2AutonomousSearchNumCalls=5076
%%%mzn-stat: 2AutonomousSearchNumPredicatesAdded=37710
%%%mzn-stat: 2AutonomousSearchAverageSizeOfHeap=13.598305752561071
%%%mzn-stat: 2AutonomousSearchNumAssignedPredicatesEncountered=69025
%%%mzn-stat-end
maxleg = 222;
succ = array1d(1..100,[35, 11, 26, 7, 12, 8, 16, 38, 14, 25, 15, 20, 70, 45, 23, 19, 40, 42, 22, 66, 33, 57, 61, 30, 62, 36, 52, 49, 91, 37, 24, 39, 41, 29, 72, 96, 58, 82, 47, 28, 90, 60, 32, 56, 80, 6, 71, 67, 54, 9, 34, 65, 74, 73, 69, 17, 59, 53, 31, 86, 79, 51, 3, 63, 94, 95, 55, 50, 89, 78, 81, 76, 75, 87, 43, 92, 46, 88, 83, 77, 10, 48, 85, 5, 1, 98, 2, 21, 18, 4, 13, 97, 44, 100, 99, 84, 64, 93, 27, 68]);
% time elapsed: 890.53 s
----------
%%%mzn-stat: initTime=0.015974428
%%%mzn-stat: objective=216
%%%mzn-stat: nodes=2038912
%%%mzn-stat: restarts=0
%%%mzn-stat: peakDepth=595
%%%mzn-stat: solveTime=889.300314037
%%%mzn-stat: variables=1105
%%%mzn-stat: propagators=806
%%%mzn-stat: failures=1515272
%%%mzn-stat: propagations=44894782
%%%mzn-stat: nogoods=1515272
%%%mzn-stat: numAtomicConstraintsPropagated=0
%%%mzn-stat: allDifferentNumber1TotalHallSetSize=52726056
%%%mzn-stat: allDifferentNumber1NumberOfConflicts=911118
%%%mzn-stat: allDifferentNumber1MaxHallSetSize=99
%%%mzn-stat: allDifferentNumber1PropagationsTotal=5824392
%%%mzn-stat: allDifferentNumber1PropagationsThatFoundConflict=911118
%%%mzn-stat: circuitNumber2PropagationsThatFoundConflict=289390
%%%mzn-stat: circuitNumber2TotalFixedEdgesAtConflict=20742180
%%%mzn-stat: circuitNumber2NumberOfConflicts=289390
%%%mzn-stat: circuitNumber2PropagationsThatPruned=557528
%%%mzn-stat: circuitNumber2PropagationsTotal=3395436
%%%mzn-stat: AverageConflictSize=31.930071960677687
%%%mzn-stat: NumUnitNogoodsLearned=0
%%%mzn-stat: AverageLearnedNogoodLength=41.77611148361482
%%%mzn-stat: AverageBacktrackAmount=0
%%%mzn-stat: AverageLbd=32.020750729901955
%%%mzn-stat: 2AutonomousSearchNumBackupCalled=5551
%%%mzn-stat: 2AutonomousSearchNumPredicatesRemoved=0
%%%mzn-stat: 2AutonomousSearchNumCalls=5562
%%%mzn-stat: 2AutonomousSearchNumPredicatesAdded=37710
%%%mzn-stat: 2AutonomousSearchAverageSizeOfHeap=14.09277238403452
%%%mzn-stat: 2AutonomousSearchNumAssignedPredicatesEncountered=78384
%%%mzn-stat-end
maxleg = 216;
succ = array1d(1..100,[35, 11, 26, 7, 12, 8, 16, 38, 14, 25, 15, 20, 70, 45, 23, 19, 40, 42, 22, 66, 33, 57, 61, 30, 62, 36, 52, 49, 91, 37, 24, 39, 41, 51, 72, 96, 58, 82, 47, 28, 90, 60, 32, 56, 80, 6, 71, 67, 54, 9, 29, 65, 74, 73, 69, 17, 59, 53, 31, 86, 79, 34, 3, 63, 94, 95, 55, 50, 89, 78, 81, 76, 75, 87, 43, 92, 46, 88, 83, 77, 10, 48, 85, 5, 1, 98, 2, 21, 18, 4, 13, 97, 44, 100, 99, 84, 64, 93, 27, 68]);
% time elapsed: 890.54 s
----------
%%%mzn-stat: initTime=0.015974428
%%%mzn-stat: objective=206
%%%mzn-stat: nodes=2433211
%%%mzn-stat: restarts=0
%%%mzn-stat: peakDepth=595
%%%mzn-stat: solveTime=981.17962069
%%%mzn-stat: variables=1105
%%%mzn-stat: propagators=806
%%%mzn-stat: failures=1679538
%%%mzn-stat: propagations=52432022
%%%mzn-stat: nogoods=1679538
%%%mzn-stat: numAtomicConstraintsPropagated=0
%%%mzn-stat: allDifferentNumber1TotalHallSetSize=53482944
%%%mzn-stat: allDifferentNumber1NumberOfConflicts=941091
%%%mzn-stat: allDifferentNumber1MaxHallSetSize=99
%%%mzn-stat: allDifferentNumber1PropagationsTotal=6662444
%%%mzn-stat: allDifferentNumber1PropagationsThatFoundConflict=941091
%%%mzn-stat: circuitNumber2PropagationsThatFoundConflict=418487
%%%mzn-stat: circuitNumber2TotalFixedEdgesAtConflict=30644085
%%%mzn-stat: circuitNumber2NumberOfConflicts=418487
%%%mzn-stat: circuitNumber2PropagationsThatPruned=677071
%%%mzn-stat: circuitNumber2PropagationsTotal=4020781
%%%mzn-stat: AverageConflictSize=31.508860770045096
%%%mzn-stat: NumUnitNogoodsLearned=0
%%%mzn-stat: AverageLearnedNogoodLength=40.50357181558262
%%%mzn-stat: AverageBacktrackAmount=0
%%%mzn-stat: AverageLbd=30.246498739534324
%%%mzn-stat: 2AutonomousSearchNumBackupCalled=6047
%%%mzn-stat: 2AutonomousSearchNumPredicatesRemoved=0
%%%mzn-stat: 2AutonomousSearchNumCalls=6059
%%%mzn-stat: 2AutonomousSearchNumPredicatesAdded=46613
%%%mzn-stat: 2AutonomousSearchAverageSizeOfHeap=14.679650107278428
%%%mzn-stat: 2AutonomousSearchNumAssignedPredicatesEncountered=88944
%%%mzn-stat-end
maxleg = 206;
succ = array1d(1..100,[35, 11, 26, 7, 12, 8, 16, 38, 14, 25, 15, 20, 70, 45, 23, 19, 40, 44, 22, 66, 33, 57, 61, 30, 62, 36, 52, 49, 91, 37, 24, 39, 41, 51, 72, 82, 58, 46, 47, 28, 90, 18, 32, 56, 80, 69, 71, 42, 54, 9, 29, 65, 74, 73, 67, 60, 59, 53, 31, 86, 83, 34, 3, 63, 94, 95, 48, 50, 89, 78, 81, 76, 75, 87, 43, 92, 6, 88, 1, 77, 10, 96, 85, 5, 79, 98, 2, 21, 55, 4, 13, 97, 17, 100, 99, 84, 64, 93, 27, 68]);
% time elapsed: 982.42 s
----------
%%%mzn-stat: initTime=0.015974428
%%%mzn-stat: objective=200
%%%mzn-stat: nodes=2433731
%%%mzn-stat: restarts=0
%%%mzn-stat: peakDepth=595
%%%mzn-stat: solveTime=981.19142982
%%%mzn-stat: variables=1105
%%%mzn-stat: propagators=806
%%%mzn-stat: failures=1679539
%%%mzn-stat: propagations=52433689
%%%mzn-stat: nogoods=1679539
%%%mzn-stat: numAtomicConstraintsPropagated=0
%%%mzn-stat: allDifferentNumber1TotalHallSetSize=53482952
%%%mzn-stat: allDifferentNumber1NumberOfConflicts=941092
%%%mzn-stat: allDifferentNumber1MaxHallSetSize=99
%%%mzn-stat: allDifferentNumber1PropagationsTotal=6662542
%%%mzn-stat: allDifferentNumber1PropagationsThatFoundConflict=941092
%%%mzn-stat: circuitNumber2PropagationsThatFoundConflict=418487
%%%mzn-stat: circuitNumber2TotalFixedEdgesAtConflict=30644085
%%%mzn-stat: circuitNumber2NumberOfConflicts=418487
%%%mzn-stat: circuitNumber2PropagationsThatPruned=677076
%%%mzn-stat: circuitNumber2PropagationsTotal=4020846
%%%mzn-stat: AverageConflictSize=31.50885451305388
%%%mzn-stat: NumUnitNogoodsLearned=0
%%%mzn-stat: AverageLearnedNogoodLength=40.503560203127165
%%%mzn-stat: AverageBacktrackAmount=0
%%%mzn-stat: AverageLbd=30.246485493936135
%%%mzn-stat: 2AutonomousSearchNumBackupCalled=6510
%%%mzn-stat: 2AutonomousSearchNumPredicatesRemoved=0
%%%mzn-stat: 2AutonomousSearchNumCalls=6523
%%%mzn-stat: 2AutonomousSearchNumPredicatesAdded=46634
%%%mzn-stat: 2AutonomousSearchAverageSizeOfHeap=15.254330829372988
%%%mzn-stat: 2AutonomousSearchNumAssignedPredicatesEncountered=99504
%%%mzn-stat-end
maxleg = 200;
succ = array1d(1..100,[35, 11, 26, 7, 12, 8, 16, 38, 14, 25, 15, 20, 70, 45, 23, 19, 40, 44, 22, 66, 33, 57, 61, 30, 62, 36, 52, 49, 91, 37, 24, 39, 41, 51, 72, 82, 58, 46, 47, 28, 90, 18, 32, 56, 80, 69, 71, 67, 54, 9, 29, 65, 74, 73, 48, 60, 59, 53, 31, 86, 83, 34, 3, 63, 94, 95, 42, 50, 89, 78, 81, 76, 75, 87, 43, 92, 6, 88, 1, 77, 10, 96, 85, 5, 79, 98, 2, 21, 55, 4, 13, 97, 17, 100, 99, 84, 64, 93, 27, 68]);
% time elapsed: 982.44 s
----------
%%%mzn-stat: initTime=0.015974428
%%%mzn-stat: objective=198
%%%mzn-stat: nodes=2434244
%%%mzn-stat: restarts=0
%%%mzn-stat: peakDepth=595
%%%mzn-stat: solveTime=981.203566624
%%%mzn-stat: variables=1105
%%%mzn-stat: propagators=806
%%%mzn-stat: failures=1679541
%%%mzn-stat: propagations=52435402
%%%mzn-stat: nogoods=1679541
%%%mzn-stat: numAtomicConstraintsPropagated=0
%%%mzn-stat: allDifferentNumber1TotalHallSetSize=53482974
%%%mzn-stat: allDifferentNumber1NumberOfConflicts=941094
%%%mzn-stat: allDifferentNumber1MaxHallSetSize=99
%%%mzn-stat: allDifferentNumber1PropagationsTotal=6662649
%%%mzn-stat: allDifferentNumber1PropagationsThatFoundConflict=941094
%%%mzn-stat: circuitNumber2PropagationsThatFoundConflict=418487
%%%mzn-stat: circuitNumber2TotalFixedEdgesAtConflict=30644085
%%%mzn-stat: circuitNumber2NumberOfConflicts=418487
%%%mzn-stat: circuitNumber2PropagationsThatPruned=677083
%%%mzn-stat: circuitNumber2PropagationsTotal=4020919
%%%mzn-stat: AverageConflictSize=31.508846166899172
%%%mzn-stat: NumUnitNogoodsLearned=0
%%%mzn-stat: AverageLearnedNogoodLength=40.50354829087233
%%%mzn-stat: AverageBacktrackAmount=0
%%%mzn-stat: AverageLbd=30.24646555219551
%%%mzn-stat: 2AutonomousSearchNumBackupCalled=6962
%%%mzn-stat: 2AutonomousSearchNumPredicatesRemoved=0
%%%mzn-stat: 2AutonomousSearchNumCalls=6976
%%%mzn-stat: 2AutonomousSearchNumPredicatesAdded=46886
%%%mzn-stat: 2AutonomousSearchAverageSizeOfHeap=15.777522935779816
%%%mzn-stat: 2AutonomousSearchNumAssignedPredicatesEncountered=110064
%%%mzn-stat-end
maxleg = 198;
succ = array1d(1..100,[35, 11, 26, 7, 12, 8, 16, 38, 14, 25, 15, 20, 70, 45, 23, 19, 40, 44, 22, 66, 33, 57, 61, 30, 62, 36, 52, 49, 91, 37, 24, 39, 41, 51, 72, 96, 58, 46, 47, 28, 90, 18, 32, 56, 80, 69, 71, 67, 54, 9, 29, 65, 74, 73, 48, 60, 59, 53, 31, 86, 83, 34, 82, 63, 94, 95, 42, 50, 89, 78, 81, 76, 75, 87, 43, 92, 6, 88, 1, 77, 10, 3, 85, 5, 79, 98, 2, 21, 55, 4, 13, 97, 17, 100, 99, 84, 64, 93, 27, 68]);
% time elapsed: 982.45 s
----------
%%%mzn-stat: initTime=0.015974428
%%%mzn-stat: objective=198
%%%mzn-stat: nodes=3758270
%%%mzn-stat: restarts=0
%%%mzn-stat: peakDepth=595
%%%mzn-stat: solveTime=1798.757835612
%%%mzn-stat: variables=1105
%%%mzn-stat: propagators=806
%%%mzn-stat: failures=2764502
%%%mzn-stat: propagations=85263894
%%%mzn-stat: nogoods=2764502
%%%mzn-stat: numAtomicConstraintsPropagated=0
%%%mzn-stat: allDifferentNumber1TotalHallSetSize=92446106
%%%mzn-stat: allDifferentNumber1NumberOfConflicts=1775786
%%%mzn-stat: allDifferentNumber1MaxHallSetSize=99
%%%mzn-stat: allDifferentNumber1PropagationsTotal=10430352
%%%mzn-stat: allDifferentNumber1PropagationsThatFoundConflict=1775786
%%%mzn-stat: circuitNumber2PropagationsThatFoundConflict=473019
%%%mzn-stat: circuitNumber2TotalFixedEdgesAtConflict=34580664
%%%mzn-stat: circuitNumber2NumberOfConflicts=473019
%%%mzn-stat: circuitNumber2PropagationsThatPruned=941033
%%%mzn-stat: circuitNumber2PropagationsTotal=5880285
%%%mzn-stat: AverageConflictSize=37.878183123036266
%%%mzn-stat: NumUnitNogoodsLearned=0
%%%mzn-stat: AverageLearnedNogoodLength=51.97363829000666
%%%mzn-stat: AverageBacktrackAmount=0
%%%mzn-stat: AverageLbd=27.445867646324725
%%%mzn-stat: 2AutonomousSearchNumBackupCalled=6962
%%%mzn-stat: 2AutonomousSearchNumPredicatesRemoved=0
%%%mzn-stat: 2AutonomousSearchNumCalls=6976
%%%mzn-stat: 2AutonomousSearchNumPredicatesAdded=56872
%%%mzn-stat: 2AutonomousSearchAverageSizeOfHeap=15.777522935779816
%%%mzn-stat: 2AutonomousSearchNumAssignedPredicatesEncountered=110064
%%%mzn-stat-end
